NODE_COORD_SECTION
1 91.86 15.93
2 46.61 34.29
3 25.00 18.46
4 58.43 27.09
5 86.96 7.33
6 21.74 16.44
7 61.33 21.65
8 79.30 30.47
9 89.13 6.73
10 44.54 8.16
11 28.04 25.07
12 60.99 23.22
13 38.13 2.35
14 93.58 7.36
15 71.02 44.89
16 35.36 13.61
17 62.12 26.59
18 39.11 30.30
19 89.91 7.58
20 87.10 3.16
21 63.61 14.99
22 68.91 25.20
23 94.07 8.72
24 18.79 29.53
25 73.51 41.98
26 26.93 20.80
27 91.82 7.33
28 40.51 14.80
29 64.86 25.92
30 62.06 24.21
31 43.77 6.78
32 91.47 10.74
33 27.24 14.03
34 45.55 30.32
35 90.42 9.11
36 50.00 12.85
37 61.03 31.33
38 64.77 33.21
39 46.82 13.09
40 78.22 26.93
41 53.07 18.36
42 38.30 5.56
43 19.96 26.83
44 69.47 23.58
45 16.75 26.74
46 82.86 48.25
47 75.81 22.60
48 77.07 47.15
49 49.27 1.82
50 59.38 18.86
51 49.28 20.89
52 30.66 24.52
53 23.81 27.68
54 21.52 15.37
55 68.24 32.22
56 75.98 15.48
57 36.98 14.47
58 70.72 27.43
59 75.93 42.96
60 89.74 1.25
61 65.62 18.64
62 41.84 12.21
63 50.61 21.96
64 89.68 3.02
65 82.74 13.42
66 75.98 17.79
67 83.91 6.49
68 89.06 9.10
69 78.06 48.36
70 28.03 27.78
71 44.94 5.87
72 78.59 40.59
73 38.46 15.45
74 26.66 29.40
75 69.76 33.52
76 74.84 42.63
77 69.51 17.30
78 64.84 30.55
79 21.49 30.82
80 78.90 14.06
81 42.78 0.79
82 44.46 2.61
83 22.58 21.47
84 40.61 20.73
85 91.01 5.65
86 86.63 5.86
87 74.18 47.83
88 57.44 14.18
89 41.28 -1.66
90 65.24 20.60
91 54.73 34.34
92 27.37 16.04
93 74.02 43.95
94 37.22 4.77
EOF
