NODE_COORD_SECTION
1 51.40 13.59
2 49.91 10.65
3 54.71 15.14
4 52.14 21.77
5 9.46 25.88
6 32.85 16.22
7 72.26 5.11
8 58.20 12.80
9 57.53 1.60
10 67.29 24.73
11 21.41 36.24
12 54.09 18.88
13 44.47 28.67
14 32.45 23.79
15 43.31 45.93
16 44.13 47.89
17 7.90 27.74
18 4.66 26.55
19 31.72 13.44
20 79.71 12.74
21 78.82 5.59
22 40.32 40.17
23 32.10 34.88
24 26.19 37.22
25 19.93 38.16
26 57.70 15.27
27 51.55 41.86
28 29.54 42.06
29 12.78 27.29
30 32.25 11.81
31 22.90 13.90
32 3.56 26.25
33 55.94 18.03
34 78.31 25.09
35 71.42 25.52
36 77.05 11.22
37 9.23 28.43
38 22.22 29.96
39 82.95 6.67
40 75.70 31.57
41 46.85 16.37
42 54.16 11.12
43 39.82 22.10
44 45.86 40.68
45 37.65 46.03
46 46.79 43.31
47 62.44 14.01
48 42.66 24.33
49 76.92 6.94
50 77.27 8.20
51 19.03 38.96
52 78.79 7.15
53 53.67 16.10
54 48.49 23.07
55 27.21 36.13
56 25.37 40.24
57 3.07 29.10
58 72.03 19.51
59 56.17 8.20
60 58.26 31.95
61 7.59 26.78
62 56.66 16.45
63 76.84 14.68
64 73.01 34.44
65 21.08 31.14
66 71.85 11.86
67 22.01 34.39
68 55.21 29.84
69 17.06 32.88
70 20.68 33.32
71 56.04 21.73
72 23.57 32.99
73 74.94 14.20
74 29.11 38.76
75 38.13 14.81
76 7.12 29.59
77 57.73 30.43
78 48.75 40.36
79 29.47 34.39
80 71.84 28.85
81 72.38 6.13
82 56.87 7.28
83 78.49 13.89
84 24.36 23.41
85 20.10 27.55
86 46.43 42.32
87 30.69 42.66
88 70.32 21.33
89 44.63 14.33
90 26.08 33.59
91 70.82 10.21
92 36.25 29.14
93 44.48 42.90
94 30.41 13.15
95 8.25 24.91
96 53.54 17.49
97 27.91 28.37
98 55.72 15.90
99 54.95 8.80
100 66.35 14.78
101 46.40 31.34
102 61.46 34.92
103 78.00 18.50
104 6.47 23.29
105 45.23 46.92
106 53.69 31.56
107 11.60 26.40
108 46.63 46.44
109 51.97 10.58
110 55.54 13.37
111 48.73 12.99
112 25.45 23.07
113 11.15 23.81
114 76.17 13.09
115 22.26 40.04
116 37.96 30.50
117 49.47 41.33
118 31.31 29.98
119 27.66 32.87
120 58.89 20.77
121 65.64 26.48
122 37.64 17.03
123 49.54 44.40
124 50.36 12.24
125 72.06 13.91
126 44.13 31.21
127 22.67 25.87
128 40.82 45.21
129 38.50 28.50
130 78.17 10.10
131 49.05 24.63
132 72.66 10.29
133 1.07 29.71
134 40.04 24.92
135 28.25 36.38
136 51.70 32.36
137 37.72 33.50
138 77.09 31.03
139 58.34 10.03
140 24.32 10.20
141 40.40 48.84
142 78.44 2.73
143 77.70 5.77
144 65.88 34.12
145 6.37 32.51
146 55.58 19.73
147 71.91 31.62
148 3.23 21.39
149 78.98 8.54
150 41.66 42.88
151 49.31 28.28
152 69.01 10.44
153 58.10 11.11
154 42.24 46.53
155 59.03 28.45
156 26.08 35.61
157 42.57 19.14
158 80.89 13.88
159 48.44 8.45
160 40.67 33.92
161 54.27 7.08
162 40.28 13.10
163 39.38 26.56
164 45.90 44.43
165 37.15 31.45
166 52.13 17.39
167 56.52 9.86
168 23.51 36.90
169 55.55 28.88
170 62.17 30.24
171 42.56 22.98
172 1.03 27.59
173 22.00 37.17
174 47.20 20.41
175 55.88 24.74
176 28.19 33.81
177 23.74 39.49
178 48.29 45.32
EOF
